c description: Random 3-CNF over 19 variables and 81 clauses
c generator: CNFgen (0.9.2)
c copyright: (C) 2012-2022 Massimo Lauria <massimo.lauria@uniroma1.it>
c url: https://massimolauria.net/cnfgen
c command line: cnfgen --output ../CNF/19_bit_81_66.cnf randkcnf 3 19 81
c
p cnf 19 81
5 -9 16 0
-3 8 15 0
-10 -13 -17 0
-1 -3 9 0
8 -10 -12 0
1 -17 -18 0
-2 7 -19 0
-2 -7 -17 0
-14 -15 18 0
-4 7 19 0
-10 13 18 0
4 6 17 0
7 16 -18 0
4 -11 12 0
-1 12 16 0
-3 -5 -9 0
-7 8 -13 0
9 17 -18 0
11 13 14 0
7 -9 -17 0
-2 12 17 0
-2 -11 -12 0
16 17 -18 0
-2 -6 18 0
-6 13 15 0
-4 -5 -15 0
-1 -4 -14 0
6 -7 14 0
-6 9 18 0
-11 -12 -19 0
-2 -10 13 0
-2 4 6 0
-4 -11 -14 0
-1 10 -17 0
-1 6 -15 0
8 9 -15 0
6 -13 14 0
6 -12 -15 0
13 -16 18 0
9 -13 -14 0
-8 15 16 0
-7 -11 -16 0
2 6 15 0
4 8 -16 0
-3 8 -16 0
-4 -9 -16 0
-4 -11 18 0
-4 -8 -19 0
6 10 15 0
-3 -9 11 0
6 -7 -16 0
6 -7 -18 0
8 12 -18 0
7 8 -17 0
1 2 -12 0
11 -12 16 0
4 -12 16 0
2 13 15 0
9 -17 -18 0
5 -12 17 0
2 -3 16 0
-10 14 -18 0
4 5 -8 0
1 6 13 0
3 11 -12 0
-2 -11 14 0
5 -17 19 0
3 -4 -13 0
8 -12 -17 0
1 -3 -7 0
-1 -8 -16 0
10 -13 15 0
-2 3 -4 0
-1 7 -8 0
4 12 13 0
-3 5 19 0
4 13 14 0
-4 17 -18 0
-7 -11 -13 0
-14 -15 16 0
-9 10 16 0
